\* Problem: Unknown *\

Maximize
 obj: + xp_0_0 + xp_0_1 + xp_0_2 + xp_0_3 + xp_0_4 + xp_0_5 + xp_0_6
 + xp_0_7 + xp_1_0 + xp_1_1 + xp_2_0 + xp_2_1 + xp_2_2 + xp_2_3 + xp_2_4
 + xp_3_0 + xp_3_1 + xp_3_2 + xp_4_0 + xp_4_1 + xp_5_0 + xp_5_1 + xp_5_2
 + xp_6_0 + xp_6_1 + xp_7_0 + xp_7_1 + xp_8_0 + xp_8_1 + xp_9_0
 + xp_10_0 + xp_11_0 + xp_11_1 + xp_11_2 + xp_11_3 + xp_12_0 + xp_13_0
 + xp_13_1 + xp_14_0 + xp_14_1 + xp_15_0 + xp_16_0 + xp_16_1 + xp_17_0
 + xp_17_1 + xp_17_2 + xp_17_3 + xp_17_4 + xp_17_5 + xp_18_0 + xp_18_1
 + xp_18_2 + xp_18_3 + xp_19_0 + xp_19_1 + xp_19_2 + xp_19_3 + xp_20_0
 + xp_20_1 + xp_20_2 + xp_20_3 + xp_21_0 + xp_21_1 + xp_21_2 + xp_21_3
 + xp_21_4 + xp_22_0 + xp_22_1 + xp_22_2 + xp_22_3 + xp_23_0 + xp_23_1
 + xp_23_2 + xp_23_3

Subject To
 r_1: 0 xp_0_0 <= 29.4574468085106
 r_2: + xp_18_1 + xp_5_1 + xp_2_2 <= 29.0077821011673
 r_3: + xp_21_3 + xp_18_3 + xp_6_1 <= 30
 r_4: + xp_17_2 + xp_15_0 <= 30
 r_5: + xp_18_0 <= 28.3056478405316
 r_6: + xp_18_2 <= 30
 r_7: + xp_20_2 <= 29.4574468085106
 r_8: + xp_23_2 + xp_22_2 + xp_11_1 + xp_5_2 + xp_3_2 + xp_2_3
 <= 29.0077821011673
 r_9: + xp_23_3 + xp_11_3 + xp_3_1 <= 30
 r_10: + xp_3_0 <= 30
 r_11: + xp_18_2 + xp_11_2 + xp_0_7 <= 28.3056478405316
 r_12: + xp_11_0 <= 30
 r_13: 0 xp_0_0 <= 30
 r_14: + xp_21_4 + xp_14_0 + xp_0_3 + xp_0_1 <= 29.0077821011673
 r_15: + xp_21_0 + xp_19_3 <= 29.4574468085106
 r_16: + xp_22_1 + xp_21_1 + xp_0_5 + xp_0_4 + xp_0_2
 <= 29.4574468085106
 r_17: + xp_0_0 <= 28.3056478405316
 r_18: + xp_21_3 + xp_4_0 <= 29.4574468085106
 r_19: + xp_19_0 + xp_0_7 <= 29.4574468085106
 r_20: + xp_21_2 + xp_19_2 + xp_19_1 + xp_14_1 + xp_4_1 + xp_0_6
 <= 29.4574468085106
 r_21: + xp_20_1 <= 29.0077821011673
 r_22: + xp_21_4 + xp_7_1 <= 29.0077821011673
 r_23: + xp_22_3 + xp_22_2 + xp_17_3 <= 29.0077821011673
 r_24: + xp_23_2 + xp_17_5 + xp_3_2 + xp_0_3 <= 29.0077821011673
 r_25: 0 xp_0_0 <= 29.0077821011673
 r_26: + xp_18_1 + xp_0_6 + xp_0_1 <= 28.3056478405316
 r_27: + xp_11_1 + xp_4_1 <= 29.0077821011673
 r_28: + xp_19_2 <= 29.0077821011673
 r_29: + xp_20_3 <= 29.4574468085106
 r_30: + xp_2_0 <= 29.0077821011673
 r_31: + xp_23_3 + xp_18_3 + xp_6_1 + xp_3_1 + xp_2_4 <= 30
 r_32: + xp_2_1 <= 30
 r_33: + xp_11_3 + xp_2_2 <= 30
 r_34: + xp_19_3 + xp_2_3 <= 30
 r_35: 0 xp_0_0 <= 29.4574468085106
 r_36: + xp_9_0 <= 29.0077821011673
 r_37: + xp_21_1 + xp_13_1 + xp_8_1 + xp_0_5 <= 30
 r_38: + xp_1_1 <= 30
 r_39: + xp_17_4 + xp_17_3 + xp_0_4 <= 30
 r_40: + xp_0_2 <= 28.3056478405316
 r_41: + xp_12_0 + xp_2_4 <= 29.0077821011673
 r_42: + xp_21_1 <= 30
 r_43: + xp_16_0 <= 30
 r_44: + xp_23_3 + xp_23_2 + xp_23_1 + xp_16_1 <= 30
 r_45: + xp_17_5 + xp_3_2 + xp_3_1 <= 30
 r_46: + xp_18_3 + xp_0_5 + xp_0_3 <= 28.3056478405316
 r_47: + xp_16_1 + xp_13_1 <= 30
 r_48: + xp_13_0 <= 30
 r_49: + xp_17_1 <= 30
 r_50: 0 xp_0_0 <= 28.3056478405316
 r_51: + xp_8_1 + xp_1_1 <= 30
 r_52: + xp_8_0 <= 30
 r_53: + xp_1_0 <= 30
 r_54: + xp_0_4 <= 28.3056478405316
 r_55: 0 xp_0_0 <= 30
 r_56: 0 xp_0_0 <= 30
 r_57: + xp_22_1 <= 28.3056478405316
 r_58: + xp_22_3 + xp_17_5 + xp_17_3 + xp_5_0 <= 28.3056478405316
 r_59: + xp_22_0 + xp_17_4 <= 28.3056478405316
 r_60: + xp_23_1 + xp_6_0 <= 28.3056478405316
 r_61: + xp_23_0 + xp_17_1 <= 28.3056478405316
 r_62: + xp_17_0 <= 28.3056478405316
 r_63: + xp_17_2 + xp_11_2 + xp_6_1 + xp_5_1 <= 28.3056478405316
 r_64: + xp_23_3 + xp_23_2 + xp_22_2 + xp_5_2 <= 28.3056478405316
 r_65: + xp_20_1 + xp_19_2 + xp_14_1 + xp_7_1 + xp_4_1 + xp_2_1 + xp_0_6
 <= 29.0077821011673
 r_66: + xp_21_2 + xp_20_3 + xp_7_0 <= 30
 r_67: + xp_20_2 + xp_19_1 + xp_10_0 <= 30
 r_68: + xp_20_0 <= 29.4574468085106

Bounds
 0 <= xp_0_0 <= 28.3456541317135
 0 <= xp_0_1 <= 6.256299849833
 0 <= xp_0_2 <= 15.5184641272597
 0 <= xp_0_3 <= 2.37668381801808
 0 <= xp_0_4 <= 3.87961603181492
 0 <= xp_0_5 <= 3.87961603181492
 0 <= xp_0_6 <= 1.18834190900904
 0 <= xp_0_7 <= 1.18834190900904
 0 <= xp_1_0 <= 20.0388375428892
 0 <= xp_1_1 <= 15.0291281571669
 0 <= xp_2_0 <= 21.5184610235669
 0 <= xp_2_1 <= 3.87961603181492
 0 <= xp_2_2 <= 7.0601873285533
 0 <= xp_2_3 <= 1.06019043224613
 0 <= xp_2_4 <= 1.06019043224613
 0 <= xp_3_0 <= 24.6990478387694
 0 <= xp_3_1 <= 6.01164350363468
 0 <= xp_3_2 <= 1.42135164787984
 0 <= xp_4_0 <= 22.3689349315972
 0 <= xp_4_1 <= 3.72815582193287
 0 <= xp_5_0 <= 14.9126232877315
 0 <= xp_5_1 <= 7.45631164386573
 0 <= xp_5_2 <= 3.72815582193287
 0 <= xp_6_0 <= 20.1320414384375
 0 <= xp_6_1 <= 3.35534023973958
 0 <= xp_7_0 <= 19.2932063785026
 0 <= xp_7_1 <= 3.2155343964171
 0 <= xp_8_0 <= 17.3359245719878
 0 <= xp_8_1 <= 2.88932076199797
 0 <= xp_9_0 <= 18.7572839790997
 0 <= xp_10_0 <= 18.7572839790997
 0 <= xp_11_0 <= 27.1573122227044
 0 <= xp_11_1 <= 7.75923206362984
 0 <= xp_11_2 <= 7.75923206362984
 0 <= xp_11_3 <= 11.6388480954448
 0 <= xp_12_0 <= 17.6155362586328
 0 <= xp_13_0 <= 14.6796135488607
 0 <= xp_13_1 <= 2.44660225814344
 0 <= xp_14_0 <= 11.6504869435402
 0 <= xp_14_1 <= 4.66019477741608
 0 <= xp_15_0 <= 16.1475749037467
 0 <= xp_16_0 <= 13.2815551156358
 0 <= xp_16_1 <= 2.21359251927264
 0 <= xp_17_0 <= 25.875750899683
 0 <= xp_17_1 <= 2.59805470879343
 0 <= xp_17_2 <= 5.19610941758687
 0 <= xp_17_3 <= 2.59805470879343
 0 <= xp_17_4 <= 6.47767074060835
 0 <= xp_17_5 <= 2.59805470879343
 0 <= xp_18_0 <= 22.4737931937051
 0 <= xp_18_1 <= 6.19805905396339
 0 <= xp_18_2 <= 10.0776750857783
 0 <= xp_18_3 <= 4.63688604429694
 0 <= xp_19_0 <= 27.774776391864
 0 <= xp_19_1 <= 4.49708020097446
 0 <= xp_19_2 <= 2.24854010048723
 0 <= xp_19_3 <= 8.37669623278938
 0 <= xp_20_0 <= 27.5417666529932
 0 <= xp_20_1 <= 6.39610569315548
 0 <= xp_20_2 <= 2.13203523105183
 0 <= xp_20_3 <= 6.01165126286675
 0 <= xp_21_0 <= 21.1456376821415
 0 <= xp_21_1 <= 1.87572451829394
 0 <= xp_21_2 <= 1.87572451829394
 0 <= xp_21_3 <= 7.6310650684028
 0 <= xp_21_4 <= 7.75923206362984
 0 <= xp_22_0 <= 22.6835097179209
 0 <= xp_22_1 <= 3.28542955884627
 0 <= xp_22_2 <= 7.1650455906612
 0 <= xp_22_3 <= 5.52233081123806
 0 <= xp_23_0 <= 26.5631257497358
 0 <= xp_23_1 <= 7.1650455906612
 0 <= xp_23_2 <= 1.64271477942314
 0 <= xp_23_3 <= 3.28542955884627

End
